TCS_Benchmarks/redos_fix/regexlib1_output_distinct_1796_1795_34_0.txt
([0-9A-Za-z])+
(([0-9A-Za-z])+)(([qtu&;o])*)
([qtu&;o])*